************************************************************************
file with basedata            : md338_.bas
initial value random generator: 10735818
************************************************************************
projects                      :  1
jobs (incl. supersource/sink ):  22
horizon                       :  175
RESOURCES
  - renewable                 :  2   R
  - nonrenewable              :  2   N
  - doubly constrained        :  0   D
************************************************************************
PROJECT INFORMATION:
pronr.  #jobs rel.date duedate tardcost  MPM-Time
    1     20      0       29        4       29
************************************************************************
PRECEDENCE RELATIONS:
jobnr.    #modes  #successors   successors
   1        1          3           2   3   4
   2        3          1           5
   3        3          3           8  10  17
   4        3          3           6   9  11
   5        3          3          12  15  17
   6        3          1           7
   7        3          2           8  12
   8        3          2          13  16
   9        3          2          12  14
  10        3          3          11  16  18
  11        3          2          14  21
  12        3          2          16  18
  13        3          2          18  19
  14        3          1          15
  15        3          2          19  20
  16        3          1          21
  17        3          2          19  20
  18        3          2          20  21
  19        3          1          22
  20        3          1          22
  21        3          1          22
  22        1          0        
************************************************************************
REQUESTS/DURATIONS:
jobnr. mode duration  R 1  R 2  N 1  N 2
------------------------------------------------------------------------
  1      1     0       0    0    0    0
  2      1     1       0    6    0    8
         2     6       0    4    6    0
         3     9       0    3    4    0
  3      1     7       5    0    1    0
         2     8       4    0    0   10
         3     9       0    6    0    6
  4      1     4       0    4    0    7
         2     7       7    0    0    6
         3     9       0    3    0    6
  5      1     1       2    0    6    0
         2     5       1    0    0    1
         3     9       0    9    6    0
  6      1     5       0    4    6    0
         2     8       0    3    5    0
         3     9       6    0    0    6
  7      1     4       0    8    8    0
         2     7       5    0    0    8
         3    10       0    7    0    2
  8      1     4       9    0    4    0
         2     5       8    0    3    0
         3     6       0    4    0    7
  9      1     4       0    4    0    5
         2     6       9    0    6    0
         3    10       0    2    6    0
 10      1     1       0    4   10    0
         2     5       0    4    0    6
         3     6       8    0    0    2
 11      1     2       0    5    0    5
         2     5       0    1    9    0
         3     9       8    0    6    0
 12      1     5       0    5    0   10
         2     6       0    3    0    9
         3     8       9    0    0    9
 13      1     1       5    0    0    5
         2     3       0    4    5    0
         3     9       0    4    3    0
 14      1     1       0    4    3    0
         2     6       4    0    3    0
         3    10       4    0    0    8
 15      1     6       7    0    6    0
         2    10       0    3    6    0
         3    10       3    0    6    0
 16      1     2       6    0    0    2
         2     6       0    8    7    0
         3     8       3    0    1    0
 17      1     5       0    3    0    2
         2     7       0    2    2    0
         3     9       9    0    1    0
 18      1     2       0    3    0    9
         2     8      10    0    2    0
         3     8       8    0    0    5
 19      1     6       0    8    9    0
         2     6       0    3    0    5
         3     9       1    0    9    0
 20      1     9       4    0    0    5
         2     9       7    0    5    0
         3     9       0    2    5    0
 21      1     2       6    0    0    9
         2     6       4    0    0    8
         3     9       3    0    0    3
 22      1     0       0    0    0    0
************************************************************************
RESOURCEAVAILABILITIES:
  R 1  R 2  N 1  N 2
   18   13   73   93
************************************************************************
MAXIMAL LAGS:
from  to  type  delay
    1   12   ES      0
    1    2   ES      0
    2   12   ES      0
    1    3   ES      0
    3   12   ES      0
    1    4   ES      0
    4   12   ES      0
    1    5   ES      0
    5   12   ES      0
    1    6   ES      0
    6   12   ES      0
    1    7   ES      0
    7   12   ES      0
    1    8   ES      0
    8   12   ES      0
    1    9   ES      0
    9   12   ES      0
    1   10   ES      0
   10   12   ES      0
    1   11   ES      0
   11   12   ES      0
    1   12   ES      0
    2    5   SS    -11
    2    5   SE     -5
    2    5   ES     11
    2    5   EE      7
    3    8   SS      2
    3    8   SE     11
    3    8   ES     -2
    3    8   EE     -8
    3   10   SS     -4
    3   10   SE     -2
    3   10   ES      8
    3   10   EE     12
    3   17   SS    -11
    3   17   SE      4
    3   17   ES      1
    3   17   EE      8
    4    6   SS     -3
    4    6   SE     12
    4    6   ES    -12
    4    6   EE     -5
    4    9   SS     11
    4    9   SE     -2
    4    9   ES     -2
    4    9   EE     -5
    4   11   SS     -6
    4   11   SE      5
    4   11   ES    -11
    4   11   EE      9
    5   15   SS     -5
    5   15   SE      9
    5   15   ES     10
    5   15   EE     11
    5   17   SS     -5
    5   17   SE      7
   17    5   SE      0
    5   17   ES      0
    5   17   EE      4
    6    7   SS     -2
    6    7   SE     -7
    6    7   ES      2
    6    7   EE      8
    7    8   SS    -12
    7    8   SE    -10
    7    8   ES      3
    7    8   EE    -10
    8   13   SS     -6
    8   13   SE    -11
    8   13   ES      8
    8   13   EE     -8
    8   16   SS     -6
    8   16   SE     -8
    8   16   ES    -10
    8   16   EE     -7
    9   14   SS      6
    9   14   SE      5
    9   14   ES     -6
    9   14   EE     -5
   10   11   SS      4
   10   11   SE    -10
   10   11   ES      1
   10   11   EE     11
   10   16   SS      2
   10   16   SE     -3
   10   16   ES     -7
   10   16   EE     11
   10   18   SS     -6
   10   18   SE     -5
   10   18   ES      1
   10   18   EE     -7
   11   14   SS      7
   11   14   SE     -5
   11   14   ES     -3
   11   14   EE     -3
   11   21   SS      6
   11   21   SE      2
   11   21   ES      8
   11   21   EE     -6
   12   16   SS     -4
   12   16   SE      3
   12   16   ES    -10
   12   16   EE     -1
   12   18   SS      0
   12   18   SE      0
   12   18   ES     -7
   12   18   EE      3
   13   18   SS      2
   13   18   SE      1
   13   18   ES      4
   13   18   EE      7
   13   19   SS     11
   13   19   SE      1
   13   19   ES     12
   13   19   EE     -8
   14   15   SS      3
   14   15   SE    -12
   14   15   ES     12
   14   15   EE      0
   15   19   SS      1
   15   19   SE    -10
   15   19   ES     12
   15   19   EE     -3
   15   20   SS      7
   15   20   SE      5
   15   20   ES     -8
   15   20   EE      5
   16   21   SS     11
   16   21   SE     -7
   16   21   ES     -4
   16   21   EE      0
   17   19   SS      2
   17   19   SE     -3
   17   19   ES      2
   17   19   EE     -3
   17   20   SS      0
   17   20   SE      5
   17   20   ES      7
   17   20   EE      3
   18   20   SS    -10
   18   20   SE     -2
   18   20   ES     -8
   18   20   EE     10
   18   21   SS      3
   18   21   SE     -6
   18   21   ES     -8
   18   21   EE     -6
   19   22   SS    -12
   19   22   SE    -12
   19   22   ES      4
   19   22   EE     11
   20   22   SS     11
   20   22   SE     -1
   20   22   ES      3
   20   22   EE      0
   21   22   SS      1
   21   22   SE      0
   21   22   ES     11
   21   22   EE     -1
************************************************************************
